p cnf 760 2552
1 381 0
-1 -381 0
1 2 382 0
-1 -2 0
-1 -382 0
-2 -382 0
2 3 383 0
-2 -3 0
-2 -383 0
-3 -383 0
3 4 384 0
-3 -4 0
-3 -384 0
-4 -384 0
4 5 385 0
-4 -5 0
-4 -385 0
-5 -385 0
5 6 386 0
-5 -6 0
-5 -386 0
-6 -386 0
6 7 387 0
-6 -7 0
-6 -387 0
-7 -387 0
7 8 388 0
-7 -8 0
-7 -388 0
-8 -388 0
8 9 389 0
-8 -9 0
-8 -389 0
-9 -389 0
9 10 390 0
-9 -10 0
-9 -390 0
-10 -390 0
10 11 391 0
-10 -11 0
-10 -391 0
-11 -391 0
11 12 392 0
-11 -12 0
-11 -392 0
-12 -392 0
12 13 393 0
-12 -13 0
-12 -393 0
-13 -393 0
13 14 394 0
-13 -14 0
-13 -394 0
-14 -394 0
14 15 395 0
-14 -15 0
-14 -395 0
-15 -395 0
15 16 396 0
-15 -16 0
-15 -396 0
-16 -396 0
16 17 397 0
-16 -17 0
-16 -397 0
-17 -397 0
17 18 398 0
-17 -18 0
-17 -398 0
-18 -398 0
18 399 0
-18 -399 0
20 381 401 0
-20 -381 0
-20 -401 0
-381 -401 0
20 21 382 402 0
-20 -21 0
-20 -382 0
-20 -402 0
-21 -382 0
-21 -402 0
-382 -402 0
21 22 383 403 0
-21 -22 0
-21 -383 0
-21 -403 0
-22 -383 0
-22 -403 0
-383 -403 0
22 23 384 404 0
-22 -23 0
-22 -384 0
-22 -404 0
-23 -384 0
-23 -404 0
-384 -404 0
23 24 385 405 0
-23 -24 0
-23 -385 0
-23 -405 0
-24 -385 0
-24 -405 0
-385 -405 0
24 25 386 406 0
-24 -25 0
-24 -386 0
-24 -406 0
-25 -386 0
-25 -406 0
-386 -406 0
25 26 387 407 0
-25 -26 0
-25 -387 0
-25 -407 0
-26 -387 0
-26 -407 0
-387 -407 0
26 27 388 408 0
-26 -27 0
-26 -388 0
-26 -408 0
-27 -388 0
-27 -408 0
-388 -408 0
27 28 389 409 0
-27 -28 0
-27 -389 0
-27 -409 0
-28 -389 0
-28 -409 0
-389 -409 0
28 29 390 410 0
-28 -29 0
-28 -390 0
-28 -410 0
-29 -390 0
-29 -410 0
-390 -410 0
29 30 391 411 0
-29 -30 0
-29 -391 0
-29 -411 0
-30 -391 0
-30 -411 0
-391 -411 0
30 31 392 412 0
-30 -31 0
-30 -392 0
-30 -412 0
-31 -392 0
-31 -412 0
-392 -412 0
31 32 393 413 0
-31 -32 0
-31 -393 0
-31 -413 0
-32 -393 0
-32 -413 0
-393 -413 0
32 33 394 414 0
-32 -33 0
-32 -394 0
-32 -414 0
-33 -394 0
-33 -414 0
-394 -414 0
33 34 395 415 0
-33 -34 0
-33 -395 0
-33 -415 0
-34 -395 0
-34 -415 0
-395 -415 0
34 35 396 416 0
-34 -35 0
-34 -396 0
-34 -416 0
-35 -396 0
-35 -416 0
-396 -416 0
35 36 397 417 0
-35 -36 0
-35 -397 0
-35 -417 0
-36 -397 0
-36 -417 0
-397 -417 0
36 37 398 418 0
-36 -37 0
-36 -398 0
-36 -418 0
-37 -398 0
-37 -418 0
-398 -418 0
37 38 399 419 0
-37 -38 0
-37 -399 0
-37 -419 0
-38 -399 0
-38 -419 0
-399 -419 0
38 420 0
-38 -420 0
39 401 421 0
-39 -401 0
-39 -421 0
-401 -421 0
39 40 402 422 0
-39 -40 0
-39 -402 0
-39 -422 0
-40 -402 0
-40 -422 0
-402 -422 0
40 41 403 423 0
-40 -41 0
-40 -403 0
-40 -423 0
-41 -403 0
-41 -423 0
-403 -423 0
41 42 404 424 0
-41 -42 0
-41 -404 0
-41 -424 0
-42 -404 0
-42 -424 0
-404 -424 0
42 43 405 425 0
-42 -43 0
-42 -405 0
-42 -425 0
-43 -405 0
-43 -425 0
-405 -425 0
43 44 406 426 0
-43 -44 0
-43 -406 0
-43 -426 0
-44 -406 0
-44 -426 0
-406 -426 0
44 45 407 427 0
-44 -45 0
-44 -407 0
-44 -427 0
-45 -407 0
-45 -427 0
-407 -427 0
45 46 408 428 0
-45 -46 0
-45 -408 0
-45 -428 0
-46 -408 0
-46 -428 0
-408 -428 0
46 47 409 429 0
-46 -47 0
-46 -409 0
-46 -429 0
-47 -409 0
-47 -429 0
-409 -429 0
47 48 410 430 0
-47 -48 0
-47 -410 0
-47 -430 0
-48 -410 0
-48 -430 0
-410 -430 0
48 49 411 431 0
-48 -49 0
-48 -411 0
-48 -431 0
-49 -411 0
-49 -431 0
-411 -431 0
49 50 412 432 0
-49 -50 0
-49 -412 0
-49 -432 0
-50 -412 0
-50 -432 0
-412 -432 0
50 51 413 433 0
-50 -51 0
-50 -413 0
-50 -433 0
-51 -413 0
-51 -433 0
-413 -433 0
51 52 414 434 0
-51 -52 0
-51 -414 0
-51 -434 0
-52 -414 0
-52 -434 0
-414 -434 0
52 53 415 435 0
-52 -53 0
-52 -415 0
-52 -435 0
-53 -415 0
-53 -435 0
-415 -435 0
53 54 416 436 0
-53 -54 0
-53 -416 0
-53 -436 0
-54 -416 0
-54 -436 0
-416 -436 0
54 55 417 437 0
-54 -55 0
-54 -417 0
-54 -437 0
-55 -417 0
-55 -437 0
-417 -437 0
55 56 418 438 0
-55 -56 0
-55 -418 0
-55 -438 0
-56 -418 0
-56 -438 0
-418 -438 0
56 57 419 439 0
-56 -57 0
-56 -419 0
-56 -439 0
-57 -419 0
-57 -439 0
-419 -439 0
57 420 440 0
-57 -420 0
-57 -440 0
-420 -440 0
58 421 441 0
-58 -421 0
-58 -441 0
-421 -441 0
58 59 422 442 0
-58 -59 0
-58 -422 0
-58 -442 0
-59 -422 0
-59 -442 0
-422 -442 0
59 60 423 443 0
-59 -60 0
-59 -423 0
-59 -443 0
-60 -423 0
-60 -443 0
-423 -443 0
60 61 424 444 0
-60 -61 0
-60 -424 0
-60 -444 0
-61 -424 0
-61 -444 0
-424 -444 0
61 62 425 445 0
-61 -62 0
-61 -425 0
-61 -445 0
-62 -425 0
-62 -445 0
-425 -445 0
62 63 426 446 0
-62 -63 0
-62 -426 0
-62 -446 0
-63 -426 0
-63 -446 0
-426 -446 0
63 64 427 447 0
-63 -64 0
-63 -427 0
-63 -447 0
-64 -427 0
-64 -447 0
-427 -447 0
64 65 428 448 0
-64 -65 0
-64 -428 0
-64 -448 0
-65 -428 0
-65 -448 0
-428 -448 0
65 66 429 449 0
-65 -66 0
-65 -429 0
-65 -449 0
-66 -429 0
-66 -449 0
-429 -449 0
66 67 430 450 0
-66 -67 0
-66 -430 0
-66 -450 0
-67 -430 0
-67 -450 0
-430 -450 0
67 68 431 451 0
-67 -68 0
-67 -431 0
-67 -451 0
-68 -431 0
-68 -451 0
-431 -451 0
68 69 432 452 0
-68 -69 0
-68 -432 0
-68 -452 0
-69 -432 0
-69 -452 0
-432 -452 0
69 70 433 453 0
-69 -70 0
-69 -433 0
-69 -453 0
-70 -433 0
-70 -453 0
-433 -453 0
70 71 434 454 0
-70 -71 0
-70 -434 0
-70 -454 0
-71 -434 0
-71 -454 0
-434 -454 0
71 72 435 455 0
-71 -72 0
-71 -435 0
-71 -455 0
-72 -435 0
-72 -455 0
-435 -455 0
72 73 436 456 0
-72 -73 0
-72 -436 0
-72 -456 0
-73 -436 0
-73 -456 0
-436 -456 0
73 74 437 457 0
-73 -74 0
-73 -437 0
-73 -457 0
-74 -437 0
-74 -457 0
-437 -457 0
74 75 438 458 0
-74 -75 0
-74 -438 0
-74 -458 0
-75 -438 0
-75 -458 0
-438 -458 0
75 76 439 459 0
-75 -76 0
-75 -439 0
-75 -459 0
-76 -439 0
-76 -459 0
-439 -459 0
76 440 460 0
-76 -440 0
-76 -460 0
-440 -460 0
77 441 461 0
-77 -441 0
-77 -461 0
-441 -461 0
77 78 442 462 0
-77 -78 0
-77 -442 0
-77 -462 0
-78 -442 0
-78 -462 0
-442 -462 0
78 79 443 463 0
-78 -79 0
-78 -443 0
-78 -463 0
-79 -443 0
-79 -463 0
-443 -463 0
79 80 444 464 0
-79 -80 0
-79 -444 0
-79 -464 0
-80 -444 0
-80 -464 0
-444 -464 0
80 81 445 465 0
-80 -81 0
-80 -445 0
-80 -465 0
-81 -445 0
-81 -465 0
-445 -465 0
81 82 446 466 0
-81 -82 0
-81 -446 0
-81 -466 0
-82 -446 0
-82 -466 0
-446 -466 0
82 83 447 467 0
-82 -83 0
-82 -447 0
-82 -467 0
-83 -447 0
-83 -467 0
-447 -467 0
83 84 448 468 0
-83 -84 0
-83 -448 0
-83 -468 0
-84 -448 0
-84 -468 0
-448 -468 0
84 85 449 469 0
-84 -85 0
-84 -449 0
-84 -469 0
-85 -449 0
-85 -469 0
-449 -469 0
85 86 450 470 0
-85 -86 0
-85 -450 0
-85 -470 0
-86 -450 0
-86 -470 0
-450 -470 0
86 87 451 471 0
-86 -87 0
-86 -451 0
-86 -471 0
-87 -451 0
-87 -471 0
-451 -471 0
87 88 452 472 0
-87 -88 0
-87 -452 0
-87 -472 0
-88 -452 0
-88 -472 0
-452 -472 0
88 89 453 473 0
-88 -89 0
-88 -453 0
-88 -473 0
-89 -453 0
-89 -473 0
-453 -473 0
89 90 454 474 0
-89 -90 0
-89 -454 0
-89 -474 0
-90 -454 0
-90 -474 0
-454 -474 0
90 91 455 475 0
-90 -91 0
-90 -455 0
-90 -475 0
-91 -455 0
-91 -475 0
-455 -475 0
91 92 456 476 0
-91 -92 0
-91 -456 0
-91 -476 0
-92 -456 0
-92 -476 0
-456 -476 0
92 93 457 477 0
-92 -93 0
-92 -457 0
-92 -477 0
-93 -457 0
-93 -477 0
-457 -477 0
93 94 458 478 0
-93 -94 0
-93 -458 0
-93 -478 0
-94 -458 0
-94 -478 0
-458 -478 0
94 95 459 479 0
-94 -95 0
-94 -459 0
-94 -479 0
-95 -459 0
-95 -479 0
-459 -479 0
95 460 480 0
-95 -460 0
-95 -480 0
-460 -480 0
96 461 481 0
-96 -461 0
-96 -481 0
-461 -481 0
96 97 462 482 0
-96 -97 0
-96 -462 0
-96 -482 0
-97 -462 0
-97 -482 0
-462 -482 0
97 98 463 483 0
-97 -98 0
-97 -463 0
-97 -483 0
-98 -463 0
-98 -483 0
-463 -483 0
98 99 464 484 0
-98 -99 0
-98 -464 0
-98 -484 0
-99 -464 0
-99 -484 0
-464 -484 0
99 100 465 485 0
-99 -100 0
-99 -465 0
-99 -485 0
-100 -465 0
-100 -485 0
-465 -485 0
100 101 466 486 0
-100 -101 0
-100 -466 0
-100 -486 0
-101 -466 0
-101 -486 0
-466 -486 0
101 102 467 487 0
-101 -102 0
-101 -467 0
-101 -487 0
-102 -467 0
-102 -487 0
-467 -487 0
102 103 468 488 0
-102 -103 0
-102 -468 0
-102 -488 0
-103 -468 0
-103 -488 0
-468 -488 0
103 104 469 489 0
-103 -104 0
-103 -469 0
-103 -489 0
-104 -469 0
-104 -489 0
-469 -489 0
104 105 470 490 0
-104 -105 0
-104 -470 0
-104 -490 0
-105 -470 0
-105 -490 0
-470 -490 0
105 106 471 491 0
-105 -106 0
-105 -471 0
-105 -491 0
-106 -471 0
-106 -491 0
-471 -491 0
106 107 472 492 0
-106 -107 0
-106 -472 0
-106 -492 0
-107 -472 0
-107 -492 0
-472 -492 0
107 108 473 493 0
-107 -108 0
-107 -473 0
-107 -493 0
-108 -473 0
-108 -493 0
-473 -493 0
108 109 474 494 0
-108 -109 0
-108 -474 0
-108 -494 0
-109 -474 0
-109 -494 0
-474 -494 0
109 110 475 495 0
-109 -110 0
-109 -475 0
-109 -495 0
-110 -475 0
-110 -495 0
-475 -495 0
110 111 476 496 0
-110 -111 0
-110 -476 0
-110 -496 0
-111 -476 0
-111 -496 0
-476 -496 0
111 112 477 497 0
-111 -112 0
-111 -477 0
-111 -497 0
-112 -477 0
-112 -497 0
-477 -497 0
112 113 478 498 0
-112 -113 0
-112 -478 0
-112 -498 0
-113 -478 0
-113 -498 0
-478 -498 0
113 114 479 499 0
-113 -114 0
-113 -479 0
-113 -499 0
-114 -479 0
-114 -499 0
-479 -499 0
114 480 500 0
-114 -480 0
-114 -500 0
-480 -500 0
115 481 501 0
-115 -481 0
-115 -501 0
-481 -501 0
115 116 482 502 0
-115 -116 0
-115 -482 0
-115 -502 0
-116 -482 0
-116 -502 0
-482 -502 0
116 117 483 503 0
-116 -117 0
-116 -483 0
-116 -503 0
-117 -483 0
-117 -503 0
-483 -503 0
117 118 484 504 0
-117 -118 0
-117 -484 0
-117 -504 0
-118 -484 0
-118 -504 0
-484 -504 0
118 119 485 505 0
-118 -119 0
-118 -485 0
-118 -505 0
-119 -485 0
-119 -505 0
-485 -505 0
119 120 486 506 0
-119 -120 0
-119 -486 0
-119 -506 0
-120 -486 0
-120 -506 0
-486 -506 0
120 121 487 507 0
-120 -121 0
-120 -487 0
-120 -507 0
-121 -487 0
-121 -507 0
-487 -507 0
121 122 488 508 0
-121 -122 0
-121 -488 0
-121 -508 0
-122 -488 0
-122 -508 0
-488 -508 0
122 123 489 509 0
-122 -123 0
-122 -489 0
-122 -509 0
-123 -489 0
-123 -509 0
-489 -509 0
123 124 490 510 0
-123 -124 0
-123 -490 0
-123 -510 0
-124 -490 0
-124 -510 0
-490 -510 0
124 125 491 511 0
-124 -125 0
-124 -491 0
-124 -511 0
-125 -491 0
-125 -511 0
-491 -511 0
125 126 492 512 0
-125 -126 0
-125 -492 0
-125 -512 0
-126 -492 0
-126 -512 0
-492 -512 0
126 127 493 513 0
-126 -127 0
-126 -493 0
-126 -513 0
-127 -493 0
-127 -513 0
-493 -513 0
127 128 494 514 0
-127 -128 0
-127 -494 0
-127 -514 0
-128 -494 0
-128 -514 0
-494 -514 0
128 129 495 515 0
-128 -129 0
-128 -495 0
-128 -515 0
-129 -495 0
-129 -515 0
-495 -515 0
129 130 496 516 0
-129 -130 0
-129 -496 0
-129 -516 0
-130 -496 0
-130 -516 0
-496 -516 0
130 131 497 517 0
-130 -131 0
-130 -497 0
-130 -517 0
-131 -497 0
-131 -517 0
-497 -517 0
131 132 498 518 0
-131 -132 0
-131 -498 0
-131 -518 0
-132 -498 0
-132 -518 0
-498 -518 0
132 133 499 519 0
-132 -133 0
-132 -499 0
-132 -519 0
-133 -499 0
-133 -519 0
-499 -519 0
133 500 520 0
-133 -500 0
-133 -520 0
-500 -520 0
134 501 521 0
-134 -501 0
-134 -521 0
-501 -521 0
134 135 502 522 0
-134 -135 0
-134 -502 0
-134 -522 0
-135 -502 0
-135 -522 0
-502 -522 0
135 136 503 523 0
-135 -136 0
-135 -503 0
-135 -523 0
-136 -503 0
-136 -523 0
-503 -523 0
136 137 504 524 0
-136 -137 0
-136 -504 0
-136 -524 0
-137 -504 0
-137 -524 0
-504 -524 0
137 138 505 525 0
-137 -138 0
-137 -505 0
-137 -525 0
-138 -505 0
-138 -525 0
-505 -525 0
138 139 506 526 0
-138 -139 0
-138 -506 0
-138 -526 0
-139 -506 0
-139 -526 0
-506 -526 0
139 140 507 527 0
-139 -140 0
-139 -507 0
-139 -527 0
-140 -507 0
-140 -527 0
-507 -527 0
140 141 508 528 0
-140 -141 0
-140 -508 0
-140 -528 0
-141 -508 0
-141 -528 0
-508 -528 0
141 142 509 529 0
-141 -142 0
-141 -509 0
-141 -529 0
-142 -509 0
-142 -529 0
-509 -529 0
142 143 510 530 0
-142 -143 0
-142 -510 0
-142 -530 0
-143 -510 0
-143 -530 0
-510 -530 0
143 144 511 531 0
-143 -144 0
-143 -511 0
-143 -531 0
-144 -511 0
-144 -531 0
-511 -531 0
144 145 512 532 0
-144 -145 0
-144 -512 0
-144 -532 0
-145 -512 0
-145 -532 0
-512 -532 0
145 146 513 533 0
-145 -146 0
-145 -513 0
-145 -533 0
-146 -513 0
-146 -533 0
-513 -533 0
146 147 514 534 0
-146 -147 0
-146 -514 0
-146 -534 0
-147 -514 0
-147 -534 0
-514 -534 0
147 148 515 535 0
-147 -148 0
-147 -515 0
-147 -535 0
-148 -515 0
-148 -535 0
-515 -535 0
148 149 516 536 0
-148 -149 0
-148 -516 0
-148 -536 0
-149 -516 0
-149 -536 0
-516 -536 0
149 150 517 537 0
-149 -150 0
-149 -517 0
-149 -537 0
-150 -517 0
-150 -537 0
-517 -537 0
150 151 518 538 0
-150 -151 0
-150 -518 0
-150 -538 0
-151 -518 0
-151 -538 0
-518 -538 0
151 152 519 539 0
-151 -152 0
-151 -519 0
-151 -539 0
-152 -519 0
-152 -539 0
-519 -539 0
152 520 540 0
-152 -520 0
-152 -540 0
-520 -540 0
153 521 541 0
-153 -521 0
-153 -541 0
-521 -541 0
153 154 522 542 0
-153 -154 0
-153 -522 0
-153 -542 0
-154 -522 0
-154 -542 0
-522 -542 0
154 155 523 543 0
-154 -155 0
-154 -523 0
-154 -543 0
-155 -523 0
-155 -543 0
-523 -543 0
155 156 524 544 0
-155 -156 0
-155 -524 0
-155 -544 0
-156 -524 0
-156 -544 0
-524 -544 0
156 157 525 545 0
-156 -157 0
-156 -525 0
-156 -545 0
-157 -525 0
-157 -545 0
-525 -545 0
157 158 526 546 0
-157 -158 0
-157 -526 0
-157 -546 0
-158 -526 0
-158 -546 0
-526 -546 0
158 159 527 547 0
-158 -159 0
-158 -527 0
-158 -547 0
-159 -527 0
-159 -547 0
-527 -547 0
159 160 528 548 0
-159 -160 0
-159 -528 0
-159 -548 0
-160 -528 0
-160 -548 0
-528 -548 0
160 161 529 549 0
-160 -161 0
-160 -529 0
-160 -549 0
-161 -529 0
-161 -549 0
-529 -549 0
161 162 530 550 0
-161 -162 0
-161 -530 0
-161 -550 0
-162 -530 0
-162 -550 0
-530 -550 0
162 163 531 551 0
-162 -163 0
-162 -531 0
-162 -551 0
-163 -531 0
-163 -551 0
-531 -551 0
163 164 532 552 0
-163 -164 0
-163 -532 0
-163 -552 0
-164 -532 0
-164 -552 0
-532 -552 0
164 165 533 553 0
-164 -165 0
-164 -533 0
-164 -553 0
-165 -533 0
-165 -553 0
-533 -553 0
165 166 534 554 0
-165 -166 0
-165 -534 0
-165 -554 0
-166 -534 0
-166 -554 0
-534 -554 0
166 167 535 555 0
-166 -167 0
-166 -535 0
-166 -555 0
-167 -535 0
-167 -555 0
-535 -555 0
167 168 536 556 0
-167 -168 0
-167 -536 0
-167 -556 0
-168 -536 0
-168 -556 0
-536 -556 0
168 169 537 557 0
-168 -169 0
-168 -537 0
-168 -557 0
-169 -537 0
-169 -557 0
-537 -557 0
169 170 538 558 0
-169 -170 0
-169 -538 0
-169 -558 0
-170 -538 0
-170 -558 0
-538 -558 0
170 171 539 559 0
-170 -171 0
-170 -539 0
-170 -559 0
-171 -539 0
-171 -559 0
-539 -559 0
171 540 560 0
-171 -540 0
-171 -560 0
-540 -560 0
172 541 561 0
-172 -541 0
-172 -561 0
-541 -561 0
172 173 542 562 0
-172 -173 0
-172 -542 0
-172 -562 0
-173 -542 0
-173 -562 0
-542 -562 0
173 174 543 563 0
-173 -174 0
-173 -543 0
-173 -563 0
-174 -543 0
-174 -563 0
-543 -563 0
174 175 544 564 0
-174 -175 0
-174 -544 0
-174 -564 0
-175 -544 0
-175 -564 0
-544 -564 0
175 176 545 565 0
-175 -176 0
-175 -545 0
-175 -565 0
-176 -545 0
-176 -565 0
-545 -565 0
176 177 546 566 0
-176 -177 0
-176 -546 0
-176 -566 0
-177 -546 0
-177 -566 0
-546 -566 0
177 178 547 567 0
-177 -178 0
-177 -547 0
-177 -567 0
-178 -547 0
-178 -567 0
-547 -567 0
178 179 548 568 0
-178 -179 0
-178 -548 0
-178 -568 0
-179 -548 0
-179 -568 0
-548 -568 0
179 180 549 569 0
-179 -180 0
-179 -549 0
-179 -569 0
-180 -549 0
-180 -569 0
-549 -569 0
180 181 550 570 0
-180 -181 0
-180 -550 0
-180 -570 0
-181 -550 0
-181 -570 0
-550 -570 0
181 182 551 571 0
-181 -182 0
-181 -551 0
-181 -571 0
-182 -551 0
-182 -571 0
-551 -571 0
182 183 552 572 0
-182 -183 0
-182 -552 0
-182 -572 0
-183 -552 0
-183 -572 0
-552 -572 0
183 184 553 573 0
-183 -184 0
-183 -553 0
-183 -573 0
-184 -553 0
-184 -573 0
-553 -573 0
184 185 554 574 0
-184 -185 0
-184 -554 0
-184 -574 0
-185 -554 0
-185 -574 0
-554 -574 0
185 186 555 575 0
-185 -186 0
-185 -555 0
-185 -575 0
-186 -555 0
-186 -575 0
-555 -575 0
186 187 556 576 0
-186 -187 0
-186 -556 0
-186 -576 0
-187 -556 0
-187 -576 0
-556 -576 0
187 188 557 577 0
-187 -188 0
-187 -557 0
-187 -577 0
-188 -557 0
-188 -577 0
-557 -577 0
188 189 558 578 0
-188 -189 0
-188 -558 0
-188 -578 0
-189 -558 0
-189 -578 0
-558 -578 0
189 190 559 579 0
-189 -190 0
-189 -559 0
-189 -579 0
-190 -559 0
-190 -579 0
-559 -579 0
190 560 580 0
-190 -560 0
-190 -580 0
-560 -580 0
191 561 581 0
-191 -561 0
-191 -581 0
-561 -581 0
191 192 562 582 0
-191 -192 0
-191 -562 0
-191 -582 0
-192 -562 0
-192 -582 0
-562 -582 0
192 193 563 583 0
-192 -193 0
-192 -563 0
-192 -583 0
-193 -563 0
-193 -583 0
-563 -583 0
193 194 564 584 0
-193 -194 0
-193 -564 0
-193 -584 0
-194 -564 0
-194 -584 0
-564 -584 0
194 195 565 585 0
-194 -195 0
-194 -565 0
-194 -585 0
-195 -565 0
-195 -585 0
-565 -585 0
195 196 566 586 0
-195 -196 0
-195 -566 0
-195 -586 0
-196 -566 0
-196 -586 0
-566 -586 0
196 197 567 587 0
-196 -197 0
-196 -567 0
-196 -587 0
-197 -567 0
-197 -587 0
-567 -587 0
197 198 568 588 0
-197 -198 0
-197 -568 0
-197 -588 0
-198 -568 0
-198 -588 0
-568 -588 0
198 199 569 589 0
-198 -199 0
-198 -569 0
-198 -589 0
-199 -569 0
-199 -589 0
-569 -589 0
199 200 570 590 0
-199 -200 0
-199 -570 0
-199 -590 0
-200 -570 0
-200 -590 0
-570 -590 0
200 201 571 591 0
-200 -201 0
-200 -571 0
-200 -591 0
-201 -571 0
-201 -591 0
-571 -591 0
201 202 572 592 0
-201 -202 0
-201 -572 0
-201 -592 0
-202 -572 0
-202 -592 0
-572 -592 0
202 203 573 593 0
-202 -203 0
-202 -573 0
-202 -593 0
-203 -573 0
-203 -593 0
-573 -593 0
203 204 574 594 0
-203 -204 0
-203 -574 0
-203 -594 0
-204 -574 0
-204 -594 0
-574 -594 0
204 205 575 595 0
-204 -205 0
-204 -575 0
-204 -595 0
-205 -575 0
-205 -595 0
-575 -595 0
205 206 576 596 0
-205 -206 0
-205 -576 0
-205 -596 0
-206 -576 0
-206 -596 0
-576 -596 0
206 207 577 597 0
-206 -207 0
-206 -577 0
-206 -597 0
-207 -577 0
-207 -597 0
-577 -597 0
207 208 578 598 0
-207 -208 0
-207 -578 0
-207 -598 0
-208 -578 0
-208 -598 0
-578 -598 0
208 209 579 599 0
-208 -209 0
-208 -579 0
-208 -599 0
-209 -579 0
-209 -599 0
-579 -599 0
209 580 600 0
-209 -580 0
-209 -600 0
-580 -600 0
210 581 601 0
-210 -581 0
-210 -601 0
-581 -601 0
210 211 582 602 0
-210 -211 0
-210 -582 0
-210 -602 0
-211 -582 0
-211 -602 0
-582 -602 0
211 212 583 603 0
-211 -212 0
-211 -583 0
-211 -603 0
-212 -583 0
-212 -603 0
-583 -603 0
212 213 584 604 0
-212 -213 0
-212 -584 0
-212 -604 0
-213 -584 0
-213 -604 0
-584 -604 0
213 214 585 605 0
-213 -214 0
-213 -585 0
-213 -605 0
-214 -585 0
-214 -605 0
-585 -605 0
214 215 586 606 0
-214 -215 0
-214 -586 0
-214 -606 0
-215 -586 0
-215 -606 0
-586 -606 0
215 216 587 607 0
-215 -216 0
-215 -587 0
-215 -607 0
-216 -587 0
-216 -607 0
-587 -607 0
216 217 588 608 0
-216 -217 0
-216 -588 0
-216 -608 0
-217 -588 0
-217 -608 0
-588 -608 0
217 218 589 609 0
-217 -218 0
-217 -589 0
-217 -609 0
-218 -589 0
-218 -609 0
-589 -609 0
218 219 590 610 0
-218 -219 0
-218 -590 0
-218 -610 0
-219 -590 0
-219 -610 0
-590 -610 0
219 220 591 611 0
-219 -220 0
-219 -591 0
-219 -611 0
-220 -591 0
-220 -611 0
-591 -611 0
220 221 592 612 0
-220 -221 0
-220 -592 0
-220 -612 0
-221 -592 0
-221 -612 0
-592 -612 0
221 222 593 613 0
-221 -222 0
-221 -593 0
-221 -613 0
-222 -593 0
-222 -613 0
-593 -613 0
222 223 594 614 0
-222 -223 0
-222 -594 0
-222 -614 0
-223 -594 0
-223 -614 0
-594 -614 0
223 224 595 615 0
-223 -224 0
-223 -595 0
-223 -615 0
-224 -595 0
-224 -615 0
-595 -615 0
224 225 596 616 0
-224 -225 0
-224 -596 0
-224 -616 0
-225 -596 0
-225 -616 0
-596 -616 0
225 226 597 617 0
-225 -226 0
-225 -597 0
-225 -617 0
-226 -597 0
-226 -617 0
-597 -617 0
226 227 598 618 0
-226 -227 0
-226 -598 0
-226 -618 0
-227 -598 0
-227 -618 0
-598 -618 0
227 228 599 619 0
-227 -228 0
-227 -599 0
-227 -619 0
-228 -599 0
-228 -619 0
-599 -619 0
228 600 620 0
-228 -600 0
-228 -620 0
-600 -620 0
229 601 621 0
-229 -601 0
-229 -621 0
-601 -621 0
229 230 602 622 0
-229 -230 0
-229 -602 0
-229 -622 0
-230 -602 0
-230 -622 0
-602 -622 0
230 231 603 623 0
-230 -231 0
-230 -603 0
-230 -623 0
-231 -603 0
-231 -623 0
-603 -623 0
231 232 604 624 0
-231 -232 0
-231 -604 0
-231 -624 0
-232 -604 0
-232 -624 0
-604 -624 0
232 233 605 625 0
-232 -233 0
-232 -605 0
-232 -625 0
-233 -605 0
-233 -625 0
-605 -625 0
233 234 606 626 0
-233 -234 0
-233 -606 0
-233 -626 0
-234 -606 0
-234 -626 0
-606 -626 0
234 235 607 627 0
-234 -235 0
-234 -607 0
-234 -627 0
-235 -607 0
-235 -627 0
-607 -627 0
235 236 608 628 0
-235 -236 0
-235 -608 0
-235 -628 0
-236 -608 0
-236 -628 0
-608 -628 0
236 237 609 629 0
-236 -237 0
-236 -609 0
-236 -629 0
-237 -609 0
-237 -629 0
-609 -629 0
237 238 610 630 0
-237 -238 0
-237 -610 0
-237 -630 0
-238 -610 0
-238 -630 0
-610 -630 0
238 239 611 631 0
-238 -239 0
-238 -611 0
-238 -631 0
-239 -611 0
-239 -631 0
-611 -631 0
239 240 612 632 0
-239 -240 0
-239 -612 0
-239 -632 0
-240 -612 0
-240 -632 0
-612 -632 0
240 241 613 633 0
-240 -241 0
-240 -613 0
-240 -633 0
-241 -613 0
-241 -633 0
-613 -633 0
241 242 614 634 0
-241 -242 0
-241 -614 0
-241 -634 0
-242 -614 0
-242 -634 0
-614 -634 0
242 243 615 635 0
-242 -243 0
-242 -615 0
-242 -635 0
-243 -615 0
-243 -635 0
-615 -635 0
243 244 616 636 0
-243 -244 0
-243 -616 0
-243 -636 0
-244 -616 0
-244 -636 0
-616 -636 0
244 245 617 637 0
-244 -245 0
-244 -617 0
-244 -637 0
-245 -617 0
-245 -637 0
-617 -637 0
245 246 618 638 0
-245 -246 0
-245 -618 0
-245 -638 0
-246 -618 0
-246 -638 0
-618 -638 0
246 247 619 639 0
-246 -247 0
-246 -619 0
-246 -639 0
-247 -619 0
-247 -639 0
-619 -639 0
247 620 640 0
-247 -620 0
-247 -640 0
-620 -640 0
248 621 641 0
-248 -621 0
-248 -641 0
-621 -641 0
248 249 622 642 0
-248 -249 0
-248 -622 0
-248 -642 0
-249 -622 0
-249 -642 0
-622 -642 0
249 250 623 643 0
-249 -250 0
-249 -623 0
-249 -643 0
-250 -623 0
-250 -643 0
-623 -643 0
250 251 624 644 0
-250 -251 0
-250 -624 0
-250 -644 0
-251 -624 0
-251 -644 0
-624 -644 0
251 252 625 645 0
-251 -252 0
-251 -625 0
-251 -645 0
-252 -625 0
-252 -645 0
-625 -645 0
252 253 626 646 0
-252 -253 0
-252 -626 0
-252 -646 0
-253 -626 0
-253 -646 0
-626 -646 0
253 254 627 647 0
-253 -254 0
-253 -627 0
-253 -647 0
-254 -627 0
-254 -647 0
-627 -647 0
254 255 628 648 0
-254 -255 0
-254 -628 0
-254 -648 0
-255 -628 0
-255 -648 0
-628 -648 0
255 256 629 649 0
-255 -256 0
-255 -629 0
-255 -649 0
-256 -629 0
-256 -649 0
-629 -649 0
256 257 630 650 0
-256 -257 0
-256 -630 0
-256 -650 0
-257 -630 0
-257 -650 0
-630 -650 0
257 258 631 651 0
-257 -258 0
-257 -631 0
-257 -651 0
-258 -631 0
-258 -651 0
-631 -651 0
258 259 632 652 0
-258 -259 0
-258 -632 0
-258 -652 0
-259 -632 0
-259 -652 0
-632 -652 0
259 260 633 653 0
-259 -260 0
-259 -633 0
-259 -653 0
-260 -633 0
-260 -653 0
-633 -653 0
260 261 634 654 0
-260 -261 0
-260 -634 0
-260 -654 0
-261 -634 0
-261 -654 0
-634 -654 0
261 262 635 655 0
-261 -262 0
-261 -635 0
-261 -655 0
-262 -635 0
-262 -655 0
-635 -655 0
262 263 636 656 0
-262 -263 0
-262 -636 0
-262 -656 0
-263 -636 0
-263 -656 0
-636 -656 0
263 264 637 657 0
-263 -264 0
-263 -637 0
-263 -657 0
-264 -637 0
-264 -657 0
-637 -657 0
264 265 638 658 0
-264 -265 0
-264 -638 0
-264 -658 0
-265 -638 0
-265 -658 0
-638 -658 0
265 266 639 659 0
-265 -266 0
-265 -639 0
-265 -659 0
-266 -639 0
-266 -659 0
-639 -659 0
266 640 660 0
-266 -640 0
-266 -660 0
-640 -660 0
267 641 661 0
-267 -641 0
-267 -661 0
-641 -661 0
267 268 642 662 0
-267 -268 0
-267 -642 0
-267 -662 0
-268 -642 0
-268 -662 0
-642 -662 0
268 269 643 663 0
-268 -269 0
-268 -643 0
-268 -663 0
-269 -643 0
-269 -663 0
-643 -663 0
269 270 644 664 0
-269 -270 0
-269 -644 0
-269 -664 0
-270 -644 0
-270 -664 0
-644 -664 0
270 271 645 665 0
-270 -271 0
-270 -645 0
-270 -665 0
-271 -645 0
-271 -665 0
-645 -665 0
271 272 646 666 0
-271 -272 0
-271 -646 0
-271 -666 0
-272 -646 0
-272 -666 0
-646 -666 0
272 273 647 667 0
-272 -273 0
-272 -647 0
-272 -667 0
-273 -647 0
-273 -667 0
-647 -667 0
273 274 648 668 0
-273 -274 0
-273 -648 0
-273 -668 0
-274 -648 0
-274 -668 0
-648 -668 0
274 275 649 669 0
-274 -275 0
-274 -649 0
-274 -669 0
-275 -649 0
-275 -669 0
-649 -669 0
275 276 650 670 0
-275 -276 0
-275 -650 0
-275 -670 0
-276 -650 0
-276 -670 0
-650 -670 0
276 277 651 671 0
-276 -277 0
-276 -651 0
-276 -671 0
-277 -651 0
-277 -671 0
-651 -671 0
277 278 652 672 0
-277 -278 0
-277 -652 0
-277 -672 0
-278 -652 0
-278 -672 0
-652 -672 0
278 279 653 673 0
-278 -279 0
-278 -653 0
-278 -673 0
-279 -653 0
-279 -673 0
-653 -673 0
279 280 654 674 0
-279 -280 0
-279 -654 0
-279 -674 0
-280 -654 0
-280 -674 0
-654 -674 0
280 281 655 675 0
-280 -281 0
-280 -655 0
-280 -675 0
-281 -655 0
-281 -675 0
-655 -675 0
281 282 656 676 0
-281 -282 0
-281 -656 0
-281 -676 0
-282 -656 0
-282 -676 0
-656 -676 0
282 283 657 677 0
-282 -283 0
-282 -657 0
-282 -677 0
-283 -657 0
-283 -677 0
-657 -677 0
283 284 658 678 0
-283 -284 0
-283 -658 0
-283 -678 0
-284 -658 0
-284 -678 0
-658 -678 0
284 285 659 679 0
-284 -285 0
-284 -659 0
-284 -679 0
-285 -659 0
-285 -679 0
-659 -679 0
285 660 680 0
-285 -660 0
-285 -680 0
-660 -680 0
286 661 681 0
-286 -661 0
-286 -681 0
-661 -681 0
286 287 662 682 0
-286 -287 0
-286 -662 0
-286 -682 0
-287 -662 0
-287 -682 0
-662 -682 0
287 288 663 683 0
-287 -288 0
-287 -663 0
-287 -683 0
-288 -663 0
-288 -683 0
-663 -683 0
288 289 664 684 0
-288 -289 0
-288 -664 0
-288 -684 0
-289 -664 0
-289 -684 0
-664 -684 0
289 290 665 685 0
-289 -290 0
-289 -665 0
-289 -685 0
-290 -665 0
-290 -685 0
-665 -685 0
290 291 666 686 0
-290 -291 0
-290 -666 0
-290 -686 0
-291 -666 0
-291 -686 0
-666 -686 0
291 292 667 687 0
-291 -292 0
-291 -667 0
-291 -687 0
-292 -667 0
-292 -687 0
-667 -687 0
292 293 668 688 0
-292 -293 0
-292 -668 0
-292 -688 0
-293 -668 0
-293 -688 0
-668 -688 0
293 294 669 689 0
-293 -294 0
-293 -669 0
-293 -689 0
-294 -669 0
-294 -689 0
-669 -689 0
294 295 670 690 0
-294 -295 0
-294 -670 0
-294 -690 0
-295 -670 0
-295 -690 0
-670 -690 0
295 296 671 691 0
-295 -296 0
-295 -671 0
-295 -691 0
-296 -671 0
-296 -691 0
-671 -691 0
296 297 672 692 0
-296 -297 0
-296 -672 0
-296 -692 0
-297 -672 0
-297 -692 0
-672 -692 0
297 298 673 693 0
-297 -298 0
-297 -673 0
-297 -693 0
-298 -673 0
-298 -693 0
-673 -693 0
298 299 674 694 0
-298 -299 0
-298 -674 0
-298 -694 0
-299 -674 0
-299 -694 0
-674 -694 0
299 300 675 695 0
-299 -300 0
-299 -675 0
-299 -695 0
-300 -675 0
-300 -695 0
-675 -695 0
300 301 676 696 0
-300 -301 0
-300 -676 0
-300 -696 0
-301 -676 0
-301 -696 0
-676 -696 0
301 302 677 697 0
-301 -302 0
-301 -677 0
-301 -697 0
-302 -677 0
-302 -697 0
-677 -697 0
302 303 678 698 0
-302 -303 0
-302 -678 0
-302 -698 0
-303 -678 0
-303 -698 0
-678 -698 0
303 304 679 699 0
-303 -304 0
-303 -679 0
-303 -699 0
-304 -679 0
-304 -699 0
-679 -699 0
304 680 700 0
-304 -680 0
-304 -700 0
-680 -700 0
305 681 701 0
-305 -681 0
-305 -701 0
-681 -701 0
305 306 682 702 0
-305 -306 0
-305 -682 0
-305 -702 0
-306 -682 0
-306 -702 0
-682 -702 0
306 307 683 703 0
-306 -307 0
-306 -683 0
-306 -703 0
-307 -683 0
-307 -703 0
-683 -703 0
307 308 684 704 0
-307 -308 0
-307 -684 0
-307 -704 0
-308 -684 0
-308 -704 0
-684 -704 0
308 309 685 705 0
-308 -309 0
-308 -685 0
-308 -705 0
-309 -685 0
-309 -705 0
-685 -705 0
309 310 686 706 0
-309 -310 0
-309 -686 0
-309 -706 0
-310 -686 0
-310 -706 0
-686 -706 0
310 311 687 707 0
-310 -311 0
-310 -687 0
-310 -707 0
-311 -687 0
-311 -707 0
-687 -707 0
311 312 688 708 0
-311 -312 0
-311 -688 0
-311 -708 0
-312 -688 0
-312 -708 0
-688 -708 0
312 313 689 709 0
-312 -313 0
-312 -689 0
-312 -709 0
-313 -689 0
-313 -709 0
-689 -709 0
313 314 690 710 0
-313 -314 0
-313 -690 0
-313 -710 0
-314 -690 0
-314 -710 0
-690 -710 0
314 315 691 711 0
-314 -315 0
-314 -691 0
-314 -711 0
-315 -691 0
-315 -711 0
-691 -711 0
315 316 692 712 0
-315 -316 0
-315 -692 0
-315 -712 0
-316 -692 0
-316 -712 0
-692 -712 0
316 317 693 713 0
-316 -317 0
-316 -693 0
-316 -713 0
-317 -693 0
-317 -713 0
-693 -713 0
317 318 694 714 0
-317 -318 0
-317 -694 0
-317 -714 0
-318 -694 0
-318 -714 0
-694 -714 0
318 319 695 715 0
-318 -319 0
-318 -695 0
-318 -715 0
-319 -695 0
-319 -715 0
-695 -715 0
319 320 696 716 0
-319 -320 0
-319 -696 0
-319 -716 0
-320 -696 0
-320 -716 0
-696 -716 0
320 321 697 717 0
-320 -321 0
-320 -697 0
-320 -717 0
-321 -697 0
-321 -717 0
-697 -717 0
321 322 698 718 0
-321 -322 0
-321 -698 0
-321 -718 0
-322 -698 0
-322 -718 0
-698 -718 0
322 323 699 719 0
-322 -323 0
-322 -699 0
-322 -719 0
-323 -699 0
-323 -719 0
-699 -719 0
323 700 720 0
-323 -700 0
-323 -720 0
-700 -720 0
324 701 721 0
-324 -701 0
-324 -721 0
-701 -721 0
324 325 702 722 0
-324 -325 0
-324 -702 0
-324 -722 0
-325 -702 0
-325 -722 0
-702 -722 0
325 326 703 723 0
-325 -326 0
-325 -703 0
-325 -723 0
-326 -703 0
-326 -723 0
-703 -723 0
326 327 704 724 0
-326 -327 0
-326 -704 0
-326 -724 0
-327 -704 0
-327 -724 0
-704 -724 0
327 328 705 725 0
-327 -328 0
-327 -705 0
-327 -725 0
-328 -705 0
-328 -725 0
-705 -725 0
328 329 706 726 0
-328 -329 0
-328 -706 0
-328 -726 0
-329 -706 0
-329 -726 0
-706 -726 0
329 330 707 727 0
-329 -330 0
-329 -707 0
-329 -727 0
-330 -707 0
-330 -727 0
-707 -727 0
330 331 708 728 0
-330 -331 0
-330 -708 0
-330 -728 0
-331 -708 0
-331 -728 0
-708 -728 0
331 332 709 729 0
-331 -332 0
-331 -709 0
-331 -729 0
-332 -709 0
-332 -729 0
-709 -729 0
332 333 710 730 0
-332 -333 0
-332 -710 0
-332 -730 0
-333 -710 0
-333 -730 0
-710 -730 0
333 334 711 731 0
-333 -334 0
-333 -711 0
-333 -731 0
-334 -711 0
-334 -731 0
-711 -731 0
334 335 712 732 0
-334 -335 0
-334 -712 0
-334 -732 0
-335 -712 0
-335 -732 0
-712 -732 0
335 336 713 733 0
-335 -336 0
-335 -713 0
-335 -733 0
-336 -713 0
-336 -733 0
-713 -733 0
336 337 714 734 0
-336 -337 0
-336 -714 0
-336 -734 0
-337 -714 0
-337 -734 0
-714 -734 0
337 338 715 735 0
-337 -338 0
-337 -715 0
-337 -735 0
-338 -715 0
-338 -735 0
-715 -735 0
338 339 716 736 0
-338 -339 0
-338 -716 0
-338 -736 0
-339 -716 0
-339 -736 0
-716 -736 0
339 340 717 737 0
-339 -340 0
-339 -717 0
-339 -737 0
-340 -717 0
-340 -737 0
-717 -737 0
340 341 718 738 0
-340 -341 0
-340 -718 0
-340 -738 0
-341 -718 0
-341 -738 0
-718 -738 0
341 342 719 739 0
-341 -342 0
-341 -719 0
-341 -739 0
-342 -719 0
-342 -739 0
-719 -739 0
342 720 740 0
-342 -720 0
-342 -740 0
-720 -740 0
343 721 0
-343 -721 0
343 344 722 742 0
-343 -344 0
-343 -722 0
-343 -742 0
-344 -722 0
-344 -742 0
-722 -742 0
344 345 723 743 0
-344 -345 0
-344 -723 0
-344 -743 0
-345 -723 0
-345 -743 0
-723 -743 0
345 346 724 744 0
-345 -346 0
-345 -724 0
-345 -744 0
-346 -724 0
-346 -744 0
-724 -744 0
346 347 725 745 0
-346 -347 0
-346 -725 0
-346 -745 0
-347 -725 0
-347 -745 0
-725 -745 0
347 348 726 746 0
-347 -348 0
-347 -726 0
-347 -746 0
-348 -726 0
-348 -746 0
-726 -746 0
348 349 727 747 0
-348 -349 0
-348 -727 0
-348 -747 0
-349 -727 0
-349 -747 0
-727 -747 0
349 350 728 748 0
-349 -350 0
-349 -728 0
-349 -748 0
-350 -728 0
-350 -748 0
-728 -748 0
350 351 729 749 0
-350 -351 0
-350 -729 0
-350 -749 0
-351 -729 0
-351 -749 0
-729 -749 0
351 352 730 750 0
-351 -352 0
-351 -730 0
-351 -750 0
-352 -730 0
-352 -750 0
-730 -750 0
352 353 731 751 0
-352 -353 0
-352 -731 0
-352 -751 0
-353 -731 0
-353 -751 0
-731 -751 0
353 354 732 752 0
-353 -354 0
-353 -732 0
-353 -752 0
-354 -732 0
-354 -752 0
-732 -752 0
354 355 733 753 0
-354 -355 0
-354 -733 0
-354 -753 0
-355 -733 0
-355 -753 0
-733 -753 0
355 356 734 754 0
-355 -356 0
-355 -734 0
-355 -754 0
-356 -734 0
-356 -754 0
-734 -754 0
356 357 735 755 0
-356 -357 0
-356 -735 0
-356 -755 0
-357 -735 0
-357 -755 0
-735 -755 0
357 358 736 756 0
-357 -358 0
-357 -736 0
-357 -756 0
-358 -736 0
-358 -756 0
-736 -756 0
358 359 737 757 0
-358 -359 0
-358 -737 0
-358 -757 0
-359 -737 0
-359 -757 0
-737 -757 0
359 360 738 758 0
-359 -360 0
-359 -738 0
-359 -758 0
-360 -738 0
-360 -758 0
-738 -758 0
360 361 739 759 0
-360 -361 0
-360 -739 0
-360 -759 0
-361 -739 0
-361 -759 0
-739 -759 0
361 740 760 0
-361 -740 0
-361 -760 0
-740 -760 0
363 742 0
-363 -742 0
363 364 743 0
-363 -364 0
-363 -743 0
-364 -743 0
364 365 744 0
-364 -365 0
-364 -744 0
-365 -744 0
365 366 745 0
-365 -366 0
-365 -745 0
-366 -745 0
366 367 746 0
-366 -367 0
-366 -746 0
-367 -746 0
367 368 747 0
-367 -368 0
-367 -747 0
-368 -747 0
368 369 748 0
-368 -369 0
-368 -748 0
-369 -748 0
369 370 749 0
-369 -370 0
-369 -749 0
-370 -749 0
370 371 750 0
-370 -371 0
-370 -750 0
-371 -750 0
371 372 751 0
-371 -372 0
-371 -751 0
-372 -751 0
372 373 752 0
-372 -373 0
-372 -752 0
-373 -752 0
373 374 753 0
-373 -374 0
-373 -753 0
-374 -753 0
374 375 754 0
-374 -375 0
-374 -754 0
-375 -754 0
375 376 755 0
-375 -376 0
-375 -755 0
-376 -755 0
376 377 756 0
-376 -377 0
-376 -756 0
-377 -756 0
377 378 757 0
-377 -378 0
-377 -757 0
-378 -757 0
378 379 758 0
-378 -379 0
-378 -758 0
-379 -758 0
379 380 759 0
-379 -380 0
-379 -759 0
-380 -759 0
380 760 0
-380 -760 0
